param n := 4;
param m := 2;

param xbar := 1 0.888888888889 2 0 3 0.388888888889 4 0;

param b := 1 -6 2 -5;

param A :  1  2  3  4  :=
   1      -5  3 -4  0
   2      -3 -4 -6  3
   ;

param disjub := 2;
param disjlb := 1;

param disj := 1 1 2 0 3 1 4 0;
